  PyCSP3 (Python:3.7.9, Path:C:\Users\HASEE\AppData\Local\Packages\PythonSoftwareFoundation.Python.3.7_qbz5n2kfra8p0\LocalCache\local-packages\Python37\site-packages\pycsp3\compiler.py)

  * Generating the file essai_cop_mod2-low-reformulate_celar_500_30_20_5_0.xml completed in     0.78 seconds.

c Choco e747e1e
s OPTIMUM FOUND
v <instantiation>
v 	<list>freq_emi[0] freq_emi[1] freq_emi[2] freq_emi[3] freq_emi[4] freq_emi[5] freq_emi[6] freq_emi[7] freq_emi[8] freq_emi[9] freq_emi[10] freq_emi[11] freq_emi[12] freq_emi[13] freq_emi[14] freq_emi[15] freq_emi[16] freq_emi[17] freq_emi[18] freq_emi[19] freq_emi[20] freq_emi[21] freq_emi[22] freq_emi[23] freq_emi[24] freq_emi[25] freq_emi[26] freq_emi[27] freq_emi[28] freq_emi[29] freq_emi[30] freq_emi[31] freq_emi[32] freq_emi[33] freq_emi[34] freq_emi[35] freq_emi[36] freq_emi[37] freq_emi[38] freq_emi[39] freq_emi[40] freq_emi[41] freq_emi[42] freq_emi[43] freq_emi[44] freq_emi[45] freq_emi[46] freq_emi[47] freq_emi[48] freq_emi[49] freq_emi[50] freq_emi[51] freq_emi[52] freq_emi[53] freq_emi[54] freq_emi[55] freq_emi[56] freq_emi[57] freq_emi[58] freq_emi[59] freq_emi[60] freq_emi[61] freq_emi[62] freq_emi[63] freq_emi[64] freq_emi[65] freq_emi[66] freq_emi[67] freq_emi[68] freq_emi[69] freq_emi[70] freq_emi[71] freq_emi[72] freq_emi[73] freq_emi[74] freq_emi[75] freq_emi[76] freq_emi[77] freq_emi[78] freq_emi[79] freq_emi[80] freq_emi[81] freq_emi[82] freq_emi[83] freq_emi[84] freq_emi[85] freq_emi[86] freq_emi[87] freq_emi[88] freq_emi[89] freq_emi[90] freq_emi[91] freq_emi[92] freq_emi[93] freq_emi[94] freq_emi[95] freq_emi[96] freq_emi[97] freq_emi[98] freq_emi[99] freq_emi[100] freq_emi[101] freq_emi[102] freq_emi[103] freq_emi[104] freq_emi[105] freq_emi[106] freq_emi[107] freq_emi[108] freq_emi[109] freq_emi[110] freq_emi[111] freq_emi[112] freq_emi[113] freq_emi[114] freq_emi[115] freq_emi[116] freq_emi[117] freq_emi[118] freq_emi[119] freq_emi[120] freq_emi[121] freq_emi[122] freq_emi[123] freq_emi[124] freq_emi[125] freq_emi[126] freq_emi[127] freq_emi[128] freq_emi[129] freq_emi[130] freq_emi[131] freq_emi[132] freq_emi[133] freq_emi[134] freq_emi[135] freq_emi[136] freq_emi[137] freq_emi[138] freq_emi[139] freq_emi[140] freq_emi[141] freq_emi[142] freq_emi[143] freq_emi[144] freq_emi[145] freq_emi[146] freq_emi[147] freq_emi[148] freq_emi[149] freq_emi[150] freq_emi[151] freq_emi[152] freq_emi[153] freq_emi[154] freq_emi[155] freq_emi[156] freq_emi[157] freq_emi[158] freq_emi[159] freq_emi[160] freq_emi[161] freq_emi[162] freq_emi[163] freq_emi[164] freq_emi[165] freq_emi[166] freq_emi[167] freq_emi[168] freq_emi[169] freq_emi[170] freq_emi[171] freq_emi[172] freq_emi[173] freq_emi[174] freq_emi[175] freq_emi[176] freq_emi[177] freq_emi[178] freq_emi[179] freq_emi[180] freq_emi[181] freq_emi[182] freq_emi[183] freq_emi[184] freq_emi[185] freq_emi[186] freq_emi[187] freq_emi[188] freq_emi[189] freq_emi[190] freq_emi[191] freq_emi[192] freq_emi[193] freq_emi[194] freq_emi[195] freq_emi[196] freq_emi[197] freq_emi[198] freq_emi[199] freq_emi[200] freq_emi[201] freq_emi[202] freq_emi[203] freq_emi[204] freq_emi[205] freq_emi[206] freq_emi[207] freq_emi[208] freq_emi[209] freq_emi[210] freq_emi[211] freq_emi[212] freq_emi[213] freq_emi[214] freq_emi[215] freq_emi[216] freq_emi[217] freq_emi[218] freq_emi[219] freq_emi[220] freq_emi[221] freq_emi[222] freq_emi[223] freq_emi[224] freq_emi[225] freq_emi[226] freq_emi[227] freq_emi[228] freq_emi[229] freq_emi[230] freq_emi[231] freq_emi[232] freq_emi[233] freq_emi[234] freq_emi[235] freq_emi[236] freq_emi[237] freq_emi[238] freq_emi[239] freq_emi[240] freq_emi[241] freq_emi[242] freq_emi[243] freq_emi[244] freq_emi[245] freq_emi[246] freq_emi[247] freq_emi[248] freq_emi[249] freq_emi[250] freq_emi[251] freq_emi[252] freq_emi[253] freq_emi[254] freq_emi[255] freq_emi[256] freq_emi[257] freq_emi[258] freq_emi[259] freq_emi[260] freq_emi[261] freq_emi[262] freq_emi[263] freq_emi[264] freq_emi[265] freq_emi[266] freq_emi[267] freq_emi[268] freq_emi[269] freq_emi[270] freq_emi[271] freq_emi[272] freq_emi[273] freq_emi[274] freq_emi[275] freq_emi[276] freq_emi[277] freq_emi[278] freq_emi[279] freq_emi[280] freq_emi[281] freq_emi[282] freq_emi[283] freq_emi[284] freq_emi[285] freq_emi[286] freq_emi[287] freq_emi[288] freq_emi[289] freq_emi[290] freq_emi[291] freq_emi[292] freq_emi[293] freq_emi[294] freq_emi[295] freq_emi[296] freq_emi[297] freq_emi[298] freq_emi[299] freq_emi[300] freq_emi[301] freq_emi[302] freq_emi[303] freq_emi[304] freq_emi[305] freq_emi[306] freq_emi[307] freq_emi[308] freq_emi[309] freq_emi[310] freq_emi[311] freq_emi[312] freq_emi[313] freq_emi[314] freq_emi[315] freq_emi[316] freq_emi[317] freq_emi[318] freq_emi[319] freq_emi[320] freq_emi[321] freq_emi[322] freq_emi[323] freq_emi[324] freq_emi[325] freq_emi[326] freq_emi[327] freq_emi[328] freq_emi[329] freq_emi[330] freq_emi[331] freq_emi[332] freq_emi[333] freq_emi[334] freq_emi[335] freq_emi[336] freq_emi[337] freq_emi[338] freq_emi[339] freq_emi[340] freq_emi[341] freq_emi[342] freq_emi[343] freq_emi[344] freq_emi[345] freq_emi[346] freq_emi[347] freq_emi[348] freq_emi[349] freq_emi[350] freq_emi[351] freq_emi[352] freq_emi[353] freq_emi[354] freq_emi[355] freq_emi[356] freq_emi[357] freq_emi[358] freq_emi[359] freq_emi[360] freq_emi[361] freq_emi[362] freq_emi[363] freq_emi[364] freq_emi[365] freq_emi[366] freq_emi[367] freq_emi[368] freq_emi[369] freq_emi[370] freq_emi[371] freq_emi[372] freq_emi[373] freq_emi[374] freq_emi[375] freq_emi[376] freq_emi[377] freq_emi[378] freq_emi[379] freq_emi[380] freq_emi[381] freq_emi[382] freq_emi[383] freq_emi[384] freq_emi[385] freq_emi[386] freq_emi[387] freq_emi[388] freq_emi[389] freq_emi[390] freq_emi[391] freq_emi[392] freq_emi[393] freq_emi[394] freq_emi[395] freq_emi[396] freq_emi[397] freq_emi[398] freq_emi[399] freq_emi[400] freq_emi[401] freq_emi[402] freq_emi[403] freq_emi[404] freq_emi[405] freq_emi[406] freq_emi[407] freq_emi[408] freq_emi[409] freq_emi[410] freq_emi[411] freq_emi[412] freq_emi[413] freq_emi[414] freq_emi[415] freq_emi[416] freq_emi[417] freq_emi[418] freq_emi[419] freq_emi[420] freq_emi[421] freq_emi[422] freq_emi[423] freq_emi[424] freq_emi[425] freq_emi[426] freq_emi[427] freq_emi[428] freq_emi[429] freq_emi[430] freq_emi[431] freq_emi[432] freq_emi[433] freq_emi[434] freq_emi[435] freq_emi[436] freq_emi[437] freq_emi[438] freq_emi[439] freq_emi[440] freq_emi[441] freq_emi[442] freq_emi[443] freq_emi[444] freq_emi[445] freq_emi[446] freq_emi[447] freq_emi[448] freq_emi[449] freq_emi[450] freq_emi[451] freq_emi[452] freq_emi[453] freq_emi[454] freq_emi[455] freq_emi[456] freq_emi[457] freq_emi[458] freq_emi[459] freq_emi[460] freq_emi[461] freq_emi[462] freq_emi[463] freq_emi[464] freq_emi[465] freq_emi[466] freq_emi[467] freq_emi[468] freq_emi[469] freq_emi[470] freq_emi[471] freq_emi[472] freq_emi[473] freq_emi[474] freq_emi[475] freq_emi[476] freq_emi[477] freq_emi[478] freq_emi[479] freq_emi[480] freq_emi[481] freq_emi[482] freq_emi[483] freq_emi[484] freq_emi[485] freq_emi[486] freq_emi[487] freq_emi[488] freq_emi[489] freq_emi[490] freq_emi[491] freq_emi[492] freq_emi[493] freq_emi[494] freq_emi[495] freq_emi[496] freq_emi[497] freq_emi[498] freq_emi[499] freq_rec[0] freq_rec[1] freq_rec[2] freq_rec[3] freq_rec[4] freq_rec[5] freq_rec[6] freq_rec[7] freq_rec[8] freq_rec[9] freq_rec[10] freq_rec[11] freq_rec[12] freq_rec[13] freq_rec[14] freq_rec[15] freq_rec[16] freq_rec[17] freq_rec[18] freq_rec[19] freq_rec[20] freq_rec[21] freq_rec[22] freq_rec[23] freq_rec[24] freq_rec[25] freq_rec[26] freq_rec[27] freq_rec[28] freq_rec[29] freq_rec[30] freq_rec[31] freq_rec[32] freq_rec[33] freq_rec[34] freq_rec[35] freq_rec[36] freq_rec[37] freq_rec[38] freq_rec[39] freq_rec[40] freq_rec[41] freq_rec[42] freq_rec[43] freq_rec[44] freq_rec[45] freq_rec[46] freq_rec[47] freq_rec[48] freq_rec[49] freq_rec[50] freq_rec[51] freq_rec[52] freq_rec[53] freq_rec[54] freq_rec[55] freq_rec[56] freq_rec[57] freq_rec[58] freq_rec[59] freq_rec[60] freq_rec[61] freq_rec[62] freq_rec[63] freq_rec[64] freq_rec[65] freq_rec[66] freq_rec[67] freq_rec[68] freq_rec[69] freq_rec[70] freq_rec[71] freq_rec[72] freq_rec[73] freq_rec[74] freq_rec[75] freq_rec[76] freq_rec[77] freq_rec[78] freq_rec[79] freq_rec[80] freq_rec[81] freq_rec[82] freq_rec[83] freq_rec[84] freq_rec[85] freq_rec[86] freq_rec[87] freq_rec[88] freq_rec[89] freq_rec[90] freq_rec[91] freq_rec[92] freq_rec[93] freq_rec[94] freq_rec[95] freq_rec[96] freq_rec[97] freq_rec[98] freq_rec[99] freq_rec[100] freq_rec[101] freq_rec[102] freq_rec[103] freq_rec[104] freq_rec[105] freq_rec[106] freq_rec[107] freq_rec[108] freq_rec[109] freq_rec[110] freq_rec[111] freq_rec[112] freq_rec[113] freq_rec[114] freq_rec[115] freq_rec[116] freq_rec[117] freq_rec[118] freq_rec[119] freq_rec[120] freq_rec[121] freq_rec[122] freq_rec[123] freq_rec[124] freq_rec[125] freq_rec[126] freq_rec[127] freq_rec[128] freq_rec[129] freq_rec[130] freq_rec[131] freq_rec[132] freq_rec[133] freq_rec[134] freq_rec[135] freq_rec[136] freq_rec[137] freq_rec[138] freq_rec[139] freq_rec[140] freq_rec[141] freq_rec[142] freq_rec[143] freq_rec[144] freq_rec[145] freq_rec[146] freq_rec[147] freq_rec[148] freq_rec[149] freq_rec[150] freq_rec[151] freq_rec[152] freq_rec[153] freq_rec[154] freq_rec[155] freq_rec[156] freq_rec[157] freq_rec[158] freq_rec[159] freq_rec[160] freq_rec[161] freq_rec[162] freq_rec[163] freq_rec[164] freq_rec[165] freq_rec[166] freq_rec[167] freq_rec[168] freq_rec[169] freq_rec[170] freq_rec[171] freq_rec[172] freq_rec[173] freq_rec[174] freq_rec[175] freq_rec[176] freq_rec[177] freq_rec[178] freq_rec[179] freq_rec[180] freq_rec[181] freq_rec[182] freq_rec[183] freq_rec[184] freq_rec[185] freq_rec[186] freq_rec[187] freq_rec[188] freq_rec[189] freq_rec[190] freq_rec[191] freq_rec[192] freq_rec[193] freq_rec[194] freq_rec[195] freq_rec[196] freq_rec[197] freq_rec[198] freq_rec[199] freq_rec[200] freq_rec[201] freq_rec[202] freq_rec[203] freq_rec[204] freq_rec[205] freq_rec[206] freq_rec[207] freq_rec[208] freq_rec[209] freq_rec[210] freq_rec[211] freq_rec[212] freq_rec[213] freq_rec[214] freq_rec[215] freq_rec[216] freq_rec[217] freq_rec[218] freq_rec[219] freq_rec[220] freq_rec[221] freq_rec[222] freq_rec[223] freq_rec[224] freq_rec[225] freq_rec[226] freq_rec[227] freq_rec[228] freq_rec[229] freq_rec[230] freq_rec[231] freq_rec[232] freq_rec[233] freq_rec[234] freq_rec[235] freq_rec[236] freq_rec[237] freq_rec[238] freq_rec[239] freq_rec[240] freq_rec[241] freq_rec[242] freq_rec[243] freq_rec[244] freq_rec[245] freq_rec[246] freq_rec[247] freq_rec[248] freq_rec[249] freq_rec[250] freq_rec[251] freq_rec[252] freq_rec[253] freq_rec[254] freq_rec[255] freq_rec[256] freq_rec[257] freq_rec[258] freq_rec[259] freq_rec[260] freq_rec[261] freq_rec[262] freq_rec[263] freq_rec[264] freq_rec[265] freq_rec[266] freq_rec[267] freq_rec[268] freq_rec[269] freq_rec[270] freq_rec[271] freq_rec[272] freq_rec[273] freq_rec[274] freq_rec[275] freq_rec[276] freq_rec[277] freq_rec[278] freq_rec[279] freq_rec[280] freq_rec[281] freq_rec[282] freq_rec[283] freq_rec[284] freq_rec[285] freq_rec[286] freq_rec[287] freq_rec[288] freq_rec[289] freq_rec[290] freq_rec[291] freq_rec[292] freq_rec[293] freq_rec[294] freq_rec[295] freq_rec[296] freq_rec[297] freq_rec[298] freq_rec[299] freq_rec[300] freq_rec[301] freq_rec[302] freq_rec[303] freq_rec[304] freq_rec[305] freq_rec[306] freq_rec[307] freq_rec[308] freq_rec[309] freq_rec[310] freq_rec[311] freq_rec[312] freq_rec[313] freq_rec[314] freq_rec[315] freq_rec[316] freq_rec[317] freq_rec[318] freq_rec[319] freq_rec[320] freq_rec[321] freq_rec[322] freq_rec[323] freq_rec[324] freq_rec[325] freq_rec[326] freq_rec[327] freq_rec[328] freq_rec[329] freq_rec[330] freq_rec[331] freq_rec[332] freq_rec[333] freq_rec[334] freq_rec[335] freq_rec[336] freq_rec[337] freq_rec[338] freq_rec[339] freq_rec[340] freq_rec[341] freq_rec[342] freq_rec[343] freq_rec[344] freq_rec[345] freq_rec[346] freq_rec[347] freq_rec[348] freq_rec[349] freq_rec[350] freq_rec[351] freq_rec[352] freq_rec[353] freq_rec[354] freq_rec[355] freq_rec[356] freq_rec[357] freq_rec[358] freq_rec[359] freq_rec[360] freq_rec[361] freq_rec[362] freq_rec[363] freq_rec[364] freq_rec[365] freq_rec[366] freq_rec[367] freq_rec[368] freq_rec[369] freq_rec[370] freq_rec[371] freq_rec[372] freq_rec[373] freq_rec[374] freq_rec[375] freq_rec[376] freq_rec[377] freq_rec[378] freq_rec[379] freq_rec[380] freq_rec[381] freq_rec[382] freq_rec[383] freq_rec[384] freq_rec[385] freq_rec[386] freq_rec[387] freq_rec[388] freq_rec[389] freq_rec[390] freq_rec[391] freq_rec[392] freq_rec[393] freq_rec[394] freq_rec[395] freq_rec[396] freq_rec[397] freq_rec[398] freq_rec[399] freq_rec[400] freq_rec[401] freq_rec[402] freq_rec[403] freq_rec[404] freq_rec[405] freq_rec[406] freq_rec[407] freq_rec[408] freq_rec[409] freq_rec[410] freq_rec[411] freq_rec[412] freq_rec[413] freq_rec[414] freq_rec[415] freq_rec[416] freq_rec[417] freq_rec[418] freq_rec[419] freq_rec[420] freq_rec[421] freq_rec[422] freq_rec[423] freq_rec[424] freq_rec[425] freq_rec[426] freq_rec[427] freq_rec[428] freq_rec[429] freq_rec[430] freq_rec[431] freq_rec[432] freq_rec[433] freq_rec[434] freq_rec[435] freq_rec[436] freq_rec[437] freq_rec[438] freq_rec[439] freq_rec[440] freq_rec[441] freq_rec[442] freq_rec[443] freq_rec[444] freq_rec[445] freq_rec[446] freq_rec[447] freq_rec[448] freq_rec[449] freq_rec[450] freq_rec[451] freq_rec[452] freq_rec[453] freq_rec[454] freq_rec[455] freq_rec[456] freq_rec[457] freq_rec[458] freq_rec[459] freq_rec[460] freq_rec[461] freq_rec[462] freq_rec[463] freq_rec[464] freq_rec[465] freq_rec[466] freq_rec[467] freq_rec[468] freq_rec[469] freq_rec[470] freq_rec[471] freq_rec[472] freq_rec[473] freq_rec[474] freq_rec[475] freq_rec[476] freq_rec[477] freq_rec[478] freq_rec[479] freq_rec[480] freq_rec[481] freq_rec[482] freq_rec[483] freq_rec[484] freq_rec[485] freq_rec[486] freq_rec[487] freq_rec[488] freq_rec[489] freq_rec[490] freq_rec[491] freq_rec[492] freq_rec[493] freq_rec[494] freq_rec[495] freq_rec[496] freq_rec[497] freq_rec[498] freq_rec[499] </list>
v 	<values>350 210 448 252 140 196 364 322 210 336 210 266 252 252 546 448 266 238 56 350 266 392 154 266 350 518 266 252 308 462 406 308 168 560 252 252 280 98 238 336 462 322 378 280 238 238 252 140 252 56 448 280 378 364 336 504 196 280 196 224 252 154 238 182 350 196 378 392 308 308 168 252 280 266 168 336 434 294 434 336 266 322 336 182 84 84 210 364 196 294 280 350 14 168 476 350 378 336 294 210 336 266 378 266 56 378 308 504 448 364 532 280 266 350 378 182 224 308 196 280 294 14 196 308 196 364 224 98 210 378 56 308 336 224 252 294 350 294 238 350 308 252 252 378 420 336 448 14 350 308 294 252 280 420 434 308 154 420 336 294 238 56 98 196 294 196 126 322 196 616 364 336 140 238 392 280 266 56 252 210 294 280 182 518 308 350 252 434 126 448 238 476 252 364 322 224 266 336 308 14 224 378 476 294 210 406 154 322 462 126 252 504 238 420 336 266 336 350 98 336 518 196 252 280 294 196 168 182 252 140 420 266 308 112 168 406 168 154 308 350 476 266 224 210 546 406 224 294 392 224 420 336 140 168 518 126 294 266 224 168 238 266 280 406 308 280 392 546 266 238 224 168 238 448 98 350 588 518 434 308 392 308 448 112 490 336 350 364 728 364 210 308 532 392 210 238 280 280 350 182 168 378 392 42 196 280 280 532 294 364 28 336 308 406 378 56 392 392 168 196 280 224 280 28 196 182 308 154 308 224 294 112 182 140 322 294 224 98 378 364 420 378 574 364 224 126 196 252 392 434 322 280 238 112 154 294 252 406 504 182 308 294 238 602 294 336 336 350 336 154 308 392 168 350 196 294 294 14 280 280 294 182 224 168 308 448 196 28 434 280 378 602 224 168 308 308 280 266 196 98 210 182 378 406 266 28 84 322 420 182 224 322 434 252 168 238 392 252 336 112 266 322 196 350 126 364 378 210 280 140 266 280 364 308 462 322 112 420 336 448 308 532 546 210 28 350 420 308 238 182 336 84 98 196 434 350 462 238 238 280 336 238 336 224 280 364 504 112 140 252 308 490 280 210 224 546 294 196 112 280 406 168 210 322 252 364 336 238 336 322 126 182 336 112 224 322 238 168 140 210 532 392 266 434 322 378 546 504 392 518 392 448 434 434 728 266 448 420 238 532 448 574 336 448 532 336 448 434 490 644 588 490 350 378 434 434 462 280 420 518 644 504 196 462 420 420 434 322 434 238 266 462 560 546 518 686 378 462 378 406 434 336 56 364 532 378 560 574 490 490 350 434 462 448 350 518 616 476 616 518 448 504 518 364 266 266 28 546 378 476 462 532 196 350 658 532 560 518 476 28 154 448 560 448 238 560 490 322 630 546 350 462 448 168 560 364 406 490 378 462 476 196 378 490 378 546 406 280 392 560 238 490 518 406 434 476 532 476 420 532 490 434 434 560 602 518 266 196 532 490 476 434 462 602 252 490 336 602 518 476 420 238 280 378 476 378 308 504 378 434 546 518 322 420 574 98 448 238 434 392 476 462 364 700 490 532 434 616 308 266 420 294 434 546 504 406 448 518 490 196 406 560 294 476 392 588 336 140 644 308 434 686 420 602 518 84 518 168 280 518 336 378 434 462 476 378 350 364 434 322 602 448 490 294 350 588 350 336 490 168 658 448 406 392 728 588 406 476 574 406 602 518 322 350 336 308 476 448 406 350 420 448 462 224 490 462 574 364 448 420 406 350 420 630 280 532 406 336 616 490 574 126 266 294 308 154 532 546 546 546 392 490 350 574 392 420 462 462 532 364 350 560 574 224 378 462 462 714 476 546 210 518 126 588 560 238 574 574 350 378 462 406 462 210 378 364 490 336 490 406 476 294 364 322 504 476 406 280 560 546 602 560 392 546 406 308 378 434 574 252 504 462 420 294 336 476 434 588 686 364 490 476 56 420 476 518 518 532 518 336 490 574 350 532 378 476 476 196 462 462 476 364 406 350 490 266 378 210 616 462 560 420 406 350 490 490 462 448 14 280 392 364 560 588 448 210 266 504 602 364 406 504 616 434 350 420 574 434 518 294 448 504 14 532 308 546 196 392 462 322 448 98 546 490 280 504 294 602 518 630 490 350 728 392 210 532 602 490 420 364 518 266 280 378 616 532 280 420 420 462 518 420 518 406 462 182 322 294 322 434 490 308 462 392 406 728 476 378 294 462 588 350 392 504 434 546 518 420 518 504 308 364 518 294 406 504 420 350 322 28 </values>
v </instantiation>

Wall time: 10.8 s
